148
10000
5652
5250
1753
1990
7493
302
5073
2145
6252
2570
4260
4044
5794
1726
2723
1413
2532
1307
369
397
1649
5516
3315
7430
2148
582
5697
1464
1171
6135
1266
4188
959
4383
2124
2872
788
4
3127
7277
3486
4268
3639
87
4895
2267
5616
2971
3556
6061
3260
5045
7242
1238
344
1618
488
2014
6850
3454
1797
4684
993
3803
6193
1253
6351
2784
4411
4348
4107
3124
1959
3262
352
953
659
4340
49
703
4984
6001
2710
4242
301
2158
2294
5964
2437
630
1302
508
3239
1180
3807
436
900
3649
1002
1636
4450
5884
382
1694
5956
3975
422
5905
4084
1185
1113
529
2342
4785
3693
4580
4406
3617
2892
2953
6761
3835
3410
695
4087
1760
2483
4340
34
1021
6307
4042
2710
5550
2215
2318
3587
2322
768
858
20
6546
4484
3800
4404
5660
1827
265
